nodes = 111;
edges = 452;
starts = [1, 1, 2, 2, 3, 4, 4, 5, 6, 6, 6, 7, 7, 7, 8, 9, 9, 10, 11, 11, 12, 13, 14, 14, 15, 15, 15, 15, 16, 16, 16, 17, 17, 17, 18, 18, 19, 19, 19, 20, 20, 21, 21, 22, 22, 22, 23, 23, 23, 24, 24, 24, 25, 25, 26, 26, 26, 27, 27, 27, 28, 28, 29, 30, 30, 30, 31, 31, 32, 32, 33, 33, 33, 34, 34, 35, 35, 36, 36, 37, 38, 38, 39, 39, 39, 40, 40, 41, 41, 42, 42, 42, 43, 43, 44, 45, 46, 46, 47, 47, 48, 48, 48, 49, 49, 49, 50, 51, 51, 51, 52, 52, 53, 53, 54, 54, 54, 55, 56, 57, 57, 58, 59, 60, 61, 62, 62, 63, 63, 63, 64, 65, 65, 66, 67, 67, 68, 68, 69, 69, 70, 70, 70, 71, 71, 71, 72, 72, 73, 73, 73, 74, 74, 75, 75, 75, 75, 76, 77, 78, 78, 79, 80, 80, 81, 81, 82, 82, 82, 83, 83, 83, 84, 84, 84, 85, 85, 85, 86, 86, 86, 87, 87, 88, 89, 90, 91, 91, 91, 92, 92, 93, 93, 94, 94, 95, 96, 96, 97, 97, 98, 99, 99, 100, 100, 101, 101, 102, 102, 103, 103, 103, 104, 105, 106, 107, 108, 108, 108, 109, 110, 110, 110, 111, 111, 111, 27, 48, 35, 47, 57, 73, 103, 97, 15, 48, 53, 82, 85, 111, 99, 14, 90, 11, 10, 64, 3, 67, 88, 91, 6, 19, 49, 51, 24, 30, 33, 54, 63, 82, 51, 75, 15, 63, 75, 22, 28, 22, 26, 20, 21, 23, 22, 26, 33, 16, 32, 75, 32, 86, 21, 23, 86, 1, 54, 108, 20, 36, 43, 16, 71, 83, 76, 80, 24, 25, 16, 23, 86, 35, 47, 34, 38, 28, 37, 36, 40, 43, 69, 84, 110, 34, 38, 79, 94, 47, 94, 96, 13, 68, 60, 60, 101, 105, 2, 42, 1, 6, 49, 15, 48, 63, 2, 15, 18, 53, 13, 68, 6, 51, 17, 27, 85, 50, 31, 50, 55, 92, 56, 61, 62, 44, 95, 17, 19, 49, 59, 78, 92, 75, 5, 93, 40, 43, 39, 108, 71, 83, 111, 30, 70, 82, 73, 103, 4, 72, 74, 29, 73, 18, 19, 24, 66, 93, 78, 65, 77, 41, 59, 98, 45, 84, 7, 17, 71, 30, 70, 110, 39, 81, 101, 7, 54, 111, 25, 26, 33, 99, 100, 106, 9, 12, 14, 74, 90, 65, 96, 52, 58, 41, 42, 89, 42, 52, 80, 98, 10, 8, 87, 87, 102, 46, 84, 100, 103, 4, 72, 102, 109, 46, 104, 8, 27, 69, 110, 107, 39, 83, 108, 7, 70, 85];
ends = [27, 48, 35, 47, 57, 73, 103, 97, 15, 48, 53, 82, 85, 111, 99, 14, 90, 11, 10, 64, 3, 67, 88, 91, 6, 19, 49, 51, 24, 30, 33, 54, 63, 82, 51, 75, 15, 63, 75, 22, 28, 22, 26, 20, 21, 23, 22, 26, 33, 16, 32, 75, 32, 86, 21, 23, 86, 1, 54, 108, 20, 36, 43, 16, 71, 83, 76, 80, 24, 25, 16, 23, 86, 35, 47, 34, 38, 28, 37, 36, 40, 43, 69, 84, 110, 34, 38, 79, 94, 47, 94, 96, 13, 68, 60, 60, 101, 105, 2, 42, 1, 6, 49, 15, 48, 63, 2, 15, 18, 53, 13, 68, 6, 51, 17, 27, 85, 50, 31, 50, 55, 92, 56, 61, 62, 44, 95, 17, 19, 49, 59, 78, 92, 75, 5, 93, 40, 43, 39, 108, 71, 83, 111, 30, 70, 82, 73, 103, 4, 72, 74, 29, 73, 18, 19, 24, 66, 93, 78, 65, 77, 41, 59, 98, 45, 84, 7, 17, 71, 30, 70, 110, 39, 81, 101, 7, 54, 111, 25, 26, 33, 99, 100, 106, 9, 12, 14, 74, 90, 65, 96, 52, 58, 41, 42, 89, 42, 52, 80, 98, 10, 8, 87, 87, 102, 46, 84, 100, 103, 4, 72, 102, 109, 46, 104, 8, 27, 69, 110, 107, 39, 83, 108, 7, 70, 85, 1, 1, 2, 2, 3, 4, 4, 5, 6, 6, 6, 7, 7, 7, 8, 9, 9, 10, 11, 11, 12, 13, 14, 14, 15, 15, 15, 15, 16, 16, 16, 17, 17, 17, 18, 18, 19, 19, 19, 20, 20, 21, 21, 22, 22, 22, 23, 23, 23, 24, 24, 24, 25, 25, 26, 26, 26, 27, 27, 27, 28, 28, 29, 30, 30, 30, 31, 31, 32, 32, 33, 33, 33, 34, 34, 35, 35, 36, 36, 37, 38, 38, 39, 39, 39, 40, 40, 41, 41, 42, 42, 42, 43, 43, 44, 45, 46, 46, 47, 47, 48, 48, 48, 49, 49, 49, 50, 51, 51, 51, 52, 52, 53, 53, 54, 54, 54, 55, 56, 57, 57, 58, 59, 60, 61, 62, 62, 63, 63, 63, 64, 65, 65, 66, 67, 67, 68, 68, 69, 69, 70, 70, 70, 71, 71, 71, 72, 72, 73, 73, 73, 74, 74, 75, 75, 75, 75, 76, 77, 78, 78, 79, 80, 80, 81, 81, 82, 82, 82, 83, 83, 83, 84, 84, 84, 85, 85, 85, 86, 86, 86, 87, 87, 88, 89, 90, 91, 91, 91, 92, 92, 93, 93, 94, 94, 95, 96, 96, 97, 97, 98, 99, 99, 100, 100, 101, 101, 102, 102, 103, 103, 103, 104, 105, 106, 107, 108, 108, 108, 109, 110, 110, 110, 111, 111, 111];
weights = [27, 26, 276, 11, 237, 62, 36, 123, 72, 32, 22, 63, 109, 94, 31, 94, 8, 9, 9, 9, 41, 5, 68, 12, 72, 57, 30, 23, 153, 23, 29, 180, 27, 26, 26, 32, 57, 31, 26, 53, 23, 91, 21, 53, 91, 26, 26, 94, 30, 153, 32, 25, 29, 24, 21, 94, 28, 27, 25, 31, 23, 31, 91, 23, 24, 129, 38, 20, 32, 29, 29, 30, 97, 12, 278, 12, 19, 31, 29, 29, 12, 108, 160, 71, 28, 20, 12, 37, 58, 125, 49, 368, 12, 13, 34, 63, 18, 23, 11, 125, 26, 32, 72, 30, 72, 57, 66, 23, 26, 72, 14, 13, 22, 72, 180, 25, 28, 39, 11, 58, 35, 53, 18, 39, 35, 43, 29, 27, 31, 57, 33, 27, 6, 89, 126, 14, 107, 13, 160, 24, 143, 23, 24, 24, 143, 20, 63, 32, 62, 63, 175, 11, 175, 32, 26, 25, 89, 240, 35, 27, 35, 37, 9, 32, 140, 13, 63, 26, 20, 129, 23, 28, 71, 13, 97, 109, 28, 42, 24, 28, 97, 65, 35, 26, 81, 100, 12, 433, 103, 6, 45, 5, 111, 58, 49, 52, 368, 120, 38, 54, 9, 31, 65, 35, 31, 18, 97, 31, 63, 36, 32, 63, 46, 23, 22, 37, 31, 24, 154, 24, 28, 28, 154, 94, 24, 42, 27, 26, 276, 11, 237, 62, 36, 123, 72, 32, 22, 63, 109, 94, 31, 94, 8, 9, 9, 9, 41, 5, 68, 12, 72, 57, 30, 23, 153, 23, 29, 180, 27, 26, 26, 32, 57, 31, 26, 53, 23, 91, 21, 53, 91, 26, 26, 94, 30, 153, 32, 25, 29, 24, 21, 94, 28, 27, 25, 31, 23, 31, 91, 23, 24, 129, 38, 20, 32, 29, 29, 30, 97, 12, 278, 12, 19, 31, 29, 29, 12, 108, 160, 71, 28, 20, 12, 37, 58, 125, 49, 368, 12, 13, 34, 63, 18, 23, 11, 125, 26, 32, 72, 30, 72, 57, 66, 23, 26, 72, 14, 13, 22, 72, 180, 25, 28, 39, 11, 58, 35, 53, 18, 39, 35, 43, 29, 27, 31, 57, 33, 27, 6, 89, 126, 14, 107, 13, 160, 24, 143, 23, 24, 24, 143, 20, 63, 32, 62, 63, 175, 11, 175, 32, 26, 25, 89, 240, 35, 27, 35, 37, 9, 32, 140, 13, 63, 26, 20, 129, 23, 28, 71, 13, 97, 109, 28, 42, 24, 28, 97, 65, 35, 26, 81, 100, 12, 433, 103, 6, 45, 5, 111, 58, 49, 52, 368, 120, 38, 54, 9, 31, 65, 35, 31, 18, 97, 31, 63, 36, 32, 63, 46, 23, 22, 37, 31, 24, 154, 24, 28, 28, 154, 94, 24, 42];
start = 30;
end= 34;
tasks = 17;
task = array2d(1..tasks, 1..nodes, [0, 0, 0, 1, 0, 0, 0, 0, 0, 0, 0, 0, 0, 0, 0, 0, 0, 0, 0, 0, 0, 0, 0, 0, 0, 0, 0, 0, 0, 0, 0, 0, 0, 0, 0, 0, 0, 0, 0, 0, 0, 0, 0, 0, 0, 0, 0, 0, 0, 0, 0, 0, 0, 0, 0, 0, 0, 0, 0, 0, 0, 0, 0, 0, 0, 0, 0, 0, 0, 0, 0, 0, 0, 0, 0, 0, 0, 0, 0, 0, 0, 0, 0, 0, 0, 0, 0, 0, 0, 0, 0, 0, 0, 0, 0, 0, 0, 0, 0, 0, 0, 0, 0, 0, 0, 0, 0, 0, 0, 0, 0, 0, 0, 0, 0, 0, 0, 0, 0, 0, 0, 0, 0, 0, 0, 0, 0, 0, 0, 0, 0, 0, 0, 0, 0, 0, 0, 0, 0, 0, 0, 0, 0, 0, 0, 0, 1, 0, 0, 0, 0, 0, 0, 0, 0, 0, 0, 0, 0, 0, 0, 0, 0, 0, 0, 0, 0, 0, 0, 0, 0, 0, 0, 0, 0, 0, 0, 0, 0, 0, 0, 0, 0, 0, 0, 0, 0, 0, 0, 0, 0, 0, 0, 0, 0, 0, 0, 0, 0, 0, 0, 0, 0, 0, 0, 0, 0, 0, 0, 0, 0, 0, 0, 0, 0, 0, 0, 0, 0, 0, 0, 0, 0, 0, 0, 0, 0, 0, 0, 0, 0, 0, 0, 0, 0, 0, 0, 0, 0, 0, 0, 0, 0, 0, 0, 0, 0, 0, 0, 0, 0, 0, 0, 0, 0, 0, 0, 0, 0, 0, 0, 0, 0, 0, 1, 0, 0, 0, 0, 0, 0, 0, 0, 0, 0, 0, 0, 0, 0, 0, 0, 0, 0, 0, 0, 0, 0, 0, 0, 0, 0, 0, 0, 0, 0, 0, 0, 0, 0, 0, 0, 0, 0, 0, 0, 0, 0, 0, 0, 0, 0, 0, 0, 0, 0, 0, 0, 0, 0, 0, 0, 0, 0, 0, 0, 0, 0, 0, 0, 0, 0, 0, 0, 0, 0, 0, 0, 0, 0, 0, 0, 0, 0, 0, 0, 0, 0, 0, 0, 0, 0, 0, 0, 0, 0, 0, 0, 0, 0, 0, 0, 0, 0, 0, 0, 0, 0, 0, 0, 0, 0, 0, 0, 0, 0, 0, 1, 0, 0, 0, 0, 0, 0, 0, 0, 0, 0, 0, 0, 0, 0, 0, 0, 0, 0, 0, 0, 0, 0, 0, 0, 0, 0, 0, 0, 0, 0, 0, 0, 0, 0, 0, 0, 0, 0, 0, 0, 0, 0, 0, 0, 0, 0, 0, 0, 0, 0, 0, 0, 0, 0, 0, 0, 0, 0, 0, 0, 0, 0, 0, 0, 0, 0, 0, 0, 0, 0, 0, 0, 0, 0, 0, 0, 0, 0, 0, 0, 0, 0, 0, 0, 0, 0, 0, 0, 0, 0, 0, 0, 0, 0, 0, 0, 0, 0, 0, 0, 0, 0, 0, 0, 0, 0, 0, 0, 0, 0, 0, 0, 0, 0, 0, 0, 0, 0, 0, 1, 0, 0, 0, 0, 0, 0, 0, 0, 0, 0, 0, 0, 0, 0, 0, 0, 0, 0, 0, 0, 0, 0, 0, 0, 0, 0, 0, 0, 0, 0, 0, 0, 0, 0, 0, 0, 0, 0, 0, 0, 0, 0, 0, 0, 0, 0, 0, 0, 0, 0, 0, 0, 0, 0, 0, 0, 0, 0, 0, 0, 0, 0, 0, 0, 0, 0, 0, 0, 0, 0, 0, 0, 0, 0, 0, 0, 0, 0, 0, 0, 0, 0, 0, 0, 0, 0, 0, 0, 0, 0, 0, 0, 0, 0, 0, 0, 0, 0, 0, 0, 0, 0, 0, 0, 0, 0, 0, 0, 0, 0, 0, 1, 0, 0, 0, 0, 0, 0, 0, 0, 0, 0, 0, 0, 0, 0, 0, 0, 0, 0, 0, 0, 0, 0, 0, 0, 0, 0, 0, 0, 0, 0, 0, 0, 0, 0, 0, 0, 0, 0, 0, 0, 0, 0, 0, 0, 0, 0, 0, 0, 0, 0, 0, 0, 0, 0, 0, 0, 0, 0, 0, 0, 0, 0, 0, 0, 0, 0, 0, 0, 0, 0, 0, 0, 0, 0, 0, 0, 0, 0, 0, 0, 0, 0, 0, 0, 0, 0, 0, 0, 0, 0, 0, 0, 0, 0, 0, 0, 0, 0, 0, 0, 0, 0, 0, 0, 0, 0, 0, 0, 0, 0, 0, 0, 0, 0, 0, 0, 0, 0, 0, 1, 0, 0, 0, 0, 0, 0, 0, 0, 0, 0, 0, 0, 0, 0, 0, 0, 0, 0, 0, 0, 0, 0, 0, 0, 0, 0, 0, 0, 0, 0, 0, 0, 0, 0, 0, 0, 0, 0, 0, 0, 0, 0, 0, 0, 0, 0, 0, 0, 0, 0, 0, 0, 0, 0, 0, 0, 0, 0, 0, 0, 0, 0, 0, 0, 0, 0, 0, 0, 0, 0, 0, 0, 0, 0, 0, 0, 0, 0, 0, 0, 0, 0, 0, 0, 0, 0, 0, 0, 0, 0, 0, 0, 0, 0, 0, 0, 0, 0, 0, 0, 0, 0, 0, 0, 0, 0, 0, 0, 0, 0, 0, 0, 0, 0, 0, 0, 0, 0, 0, 0, 0, 1, 0, 0, 0, 0, 0, 0, 0, 0, 0, 0, 0, 0, 0, 0, 0, 0, 0, 0, 0, 0, 0, 0, 0, 0, 0, 0, 0, 0, 0, 0, 0, 0, 0, 0, 0, 0, 0, 0, 0, 0, 0, 0, 0, 0, 0, 0, 0, 0, 0, 0, 0, 0, 0, 0, 0, 0, 0, 0, 0, 0, 0, 0, 0, 0, 0, 0, 0, 0, 0, 0, 0, 0, 0, 0, 0, 0, 0, 0, 0, 0, 0, 0, 0, 0, 0, 0, 0, 0, 0, 0, 0, 0, 0, 0, 0, 0, 0, 0, 0, 0, 0, 0, 0, 0, 0, 0, 0, 0, 0, 0, 0, 0, 0, 0, 0, 0, 1, 0, 0, 0, 0, 0, 0, 0, 0, 0, 0, 0, 0, 0, 0, 0, 0, 0, 0, 0, 0, 0, 0, 0, 0, 0, 0, 0, 0, 0, 0, 0, 0, 0, 0, 0, 0, 0, 0, 0, 0, 0, 0, 0, 0, 0, 0, 0, 0, 0, 0, 0, 0, 0, 0, 0, 0, 0, 0, 0, 0, 0, 0, 0, 0, 0, 0, 0, 0, 0, 0, 0, 0, 0, 0, 0, 0, 0, 0, 0, 0, 0, 0, 0, 0, 0, 0, 0, 0, 0, 0, 0, 0, 0, 0, 0, 0, 0, 0, 0, 0, 0, 0, 0, 0, 0, 0, 0, 0, 0, 0, 0, 0, 0, 0, 1, 0, 0, 0, 0, 0, 0, 0, 0, 0, 0, 0, 0, 0, 0, 0, 0, 0, 0, 0, 0, 0, 0, 0, 0, 0, 0, 0, 0, 0, 0, 0, 0, 0, 0, 0, 0, 0, 0, 0, 0, 0, 0, 0, 0, 0, 0, 0, 0, 0, 0, 0, 0, 0, 0, 0, 0, 0, 0, 0, 0, 0, 0, 0, 0, 0, 0, 0, 0, 0, 0, 0, 0, 0, 0, 0, 0, 0, 0, 0, 0, 0, 0, 0, 0, 0, 0, 0, 0, 0, 0, 0, 0, 0, 0, 0, 0, 0, 0, 0, 0, 0, 0, 0, 0, 0, 0, 0, 0, 0, 0, 0, 0, 1, 0, 0, 0, 0, 0, 0, 0, 0, 0, 0, 0, 0, 0, 0, 0, 0, 0, 0, 0, 0, 0, 0, 0, 0, 0, 0, 0, 0, 0, 0, 0, 0, 0, 0, 0, 0, 0, 0, 0, 0, 0, 0, 0, 0, 0, 0, 0, 0, 0, 0, 0, 0, 0, 0, 0, 0, 0, 0, 0, 0, 0, 0, 0, 0, 0, 0, 0, 0, 0, 0, 0, 0, 0, 0, 0, 0, 0, 0, 0, 0, 0, 0, 0, 0, 0, 0, 0, 0, 0, 0, 0, 0, 0, 0, 0, 0, 0, 0, 0, 0, 0, 0, 0, 0, 0, 0, 0, 0, 0, 0, 0, 0, 0, 1, 0, 0, 0, 0, 0, 0, 0, 0, 0, 0, 0, 0, 0, 0, 0, 0, 0, 0, 0, 0, 0, 0, 0, 0, 0, 0, 0, 0, 0, 0, 0, 0, 0, 0, 0, 0, 0, 0, 0, 0, 0, 0, 0, 0, 0, 0, 0, 0, 0, 0, 0, 0, 0, 0, 0, 0, 0, 0, 0, 0, 0, 0, 0, 0, 0, 0, 0, 0, 0, 0, 0, 0, 0, 0, 0, 0, 0, 0, 0, 0, 0, 0, 0, 0, 0, 0, 0, 0, 0, 0, 0, 0, 0, 0, 0, 0, 0, 0, 0, 0, 0, 0, 0, 0, 0, 0, 0, 0, 0, 0, 0, 1, 0, 0, 0, 0, 0, 0, 0, 0, 0, 0, 0, 0, 0, 0, 0, 0, 0, 0, 0, 0, 0, 0, 0, 0, 0, 0, 0, 0, 0, 0, 0, 0, 0, 0, 0, 0, 0, 0, 0, 0, 0, 0, 0, 0, 0, 0, 0, 0, 0, 0, 0, 0, 0, 0, 0, 0, 0, 0, 0, 0, 0, 0, 0, 0, 0, 0, 0, 0, 0, 0, 0, 0, 0, 0, 0, 0, 0, 0, 0, 0, 0, 0, 0, 0, 0, 0, 0, 0, 0, 0, 0, 0, 0, 0, 0, 0, 0, 0, 0, 0, 0, 0, 0, 0, 0, 0, 0, 0, 0, 0, 0, 0, 0, 0, 0, 0, 0, 1, 0, 0, 0, 0, 0, 0, 0, 0, 0, 0, 0, 0, 0, 0, 0, 0, 0, 0, 0, 0, 0, 0, 0, 0, 0, 0, 0, 0, 0, 0, 0, 0, 0, 0, 0, 0, 0, 0, 0, 0, 0, 0, 0, 0, 0, 0, 0, 0, 0, 0, 0, 0, 0, 0, 0, 0, 0, 0, 0, 0, 0, 0, 0, 0, 0, 0, 0, 0, 0, 0, 0, 0, 0, 0, 0, 0, 0, 0, 0, 0, 0, 0, 0, 0, 0, 0, 0, 0, 0, 0, 0, 0, 0, 0, 0, 0, 0, 0, 0, 0, 0, 0, 0, 0, 0, 0, 0, 0, 0, 0, 0, 0, 1, 0, 0, 0, 0, 0, 0, 0, 0, 0, 0, 0, 0, 0, 0, 0, 0, 0, 0, 0, 0, 0, 0, 0, 0, 0, 0, 0, 0, 0, 0, 0, 0, 0, 0, 0, 0, 0, 0, 0, 0, 0, 0, 0, 0, 0, 0, 0, 0, 0, 0, 0, 0, 0, 0, 0, 0, 0, 0, 0, 0, 0, 0, 0, 0, 0, 0, 0, 0, 0, 0, 0, 0, 0, 0, 0, 0, 0, 0, 0, 0, 0, 0, 0, 0, 0, 0, 0, 0, 0, 0, 0, 0, 0, 0, 0, 0, 0, 0, 0, 0, 0, 0, 0, 0, 0, 0, 0, 0, 0, 0, 0, 0, 0, 1, 0, 0, 0, 0, 0, 0, 0, 0, 0, 0, 0, 0, 0, 0, 0, 0, 0, 0, 0, 0, 0, 0, 0, 0, 0, 0, 0, 0, 0, 0, 0, 0, 0, 0, 0, 0, 0, 0, 0, 0, 0, 0, 0, 0, 0, 0, 0, 0, 0, 0, 0, 0, 0, 0, 0, 0, 0, 0, 0, 0, 0, 0, 0, 0, 0, 0, 0, 0, 0, 0, 0, 0, 0, 0, 0, 0, 0, 0, 0, 0, 0, 0, 0, 0, 0, 0, 0, 0, 0, 0, 0, 0, 0, 0, 0, 0, 0, 0, 0, 0, 0, 0, 0, 0, 0, 0, 0, 0, 0, 0, 0, 0, 0, 0, 0, 1, 0, 0, 0, 0]);
